NAME : Random_TSP_Instance
TYPE : TSP
DIMENSION : 10
EDGE_WEIGHT_TYPE : EXPLICIT
EDGE_WEIGHT_FORMAT : FULL_MATRIX
NODE_COORD_TYPE : NO_COORDS
DISPLAY_DATA_TYPE: TWOD_DISPLAY
EDGE_WEIGHT_SECTION
0.000000 1866105.478932 65.776356 1866105.478932 84.279424 1866105.478932 1866105.478932 1866105.478932 1866105.478932 1866105.478932
1866105.478932 0.000000 1866105.478932 1866105.478932 1866105.478932 24.053589 1866105.478932 81.566707 1866105.478932 1866105.478932
65.776356 1866105.478932 0.000000 17.816927 1866105.478932 1866105.478932 1866105.478932 1866105.478932 1866105.478932 1866105.478932
1866105.478932 1866105.478932 17.816927 0.000000 1866105.478932 1866105.478932 1866105.478932 1866105.478932 54.814043 1866105.478932
84.279424 1866105.478932 1866105.478932 1866105.478932 0.000000 93.462042 1866105.478932 1866105.478932 1866105.478932 1866105.478932
1866105.478932 24.053589 1866105.478932 1866105.478932 93.462042 0.000000 1866105.478932 1866105.478932 1866105.478932 1866105.478932
1866105.478932 1866105.478932 1866105.478932 1866105.478932 1866105.478932 1866105.478932 0.000000 1866105.478932 18.240205 53.468202
1866105.478932 81.566707 1866105.478932 1866105.478932 1866105.478932 1866105.478932 1866105.478932 0.000000 1866105.478932 13.169583
1866105.478932 1866105.478932 1866105.478932 54.814043 1866105.478932 1866105.478932 18.240205 1866105.478932 0.000000 1866105.478932
1866105.478932 1866105.478932 1866105.478932 1866105.478932 1866105.478932 1866105.478932 53.468202 13.169583 1866105.478932 0.000000
EOF
